SAT
-1 -100 -99 -98 -97 96 15 33 -51 58 32 75 -76 27 -36 -95 61 -66 -82 -20 -28 -73 94 40 50 -52 10 45 25 41 21 23 60 -17 49 86 -34 89 -84 -16 -26 -57 -93 -68 -38 78 8 69 92 -22 -46 -53 -31 -88 -3 -39 -83 -42 -90 -29 19 85 79 -65 -13 -91 24 54 47 -63 -43 6 -9 11 64 62 80 -18 30 55 70 -48 -67 -56 -87 37 -81 -74 -5 7 72 14 35 -2 4 12 59 77 44 -71 0
